NAME : LIN317A
TYPE : PDTSP
DIMENSION : 317
EDGE_WEIGHT_TYPE : EUC_2D
NODE_COORD_SECTION
1 63 71
2 94 71
3 142 370
4 173 1276
5 205 1213
6 213 69
7 244 69
8 276 630
9 283 732
10 362 69
11 394 69
12 449 370
13 480 1276
14 512 1213
15 528 157
16 583 630
17 591 732
18 638 654
19 638 496
20 638 314
21 638 142
22 669 142
23 677 315
24 677 496
25 677 654
26 709 654
27 709 496
28 709 315
29 701 142
30 764 220
31 811 189
32 843 173
33 858 370
34 890 1276
35 921 1213
36 992 630
37 1000 732
38 1197 1276
39 1228 1213
40 1276 205
41 1299 630
42 1307 732
43 1362 654
44 1362 496
45 1362 291
46 1425 654
47 1425 496
48 1425 291
49 1417 173
50 1488 291
51 1488 496
52 1488 654
53 1551 654
54 1551 496
55 1551 291
56 1614 291
57 1614 496
58 1614 654
59 1732 189
60 1811 1276
61 1843 1213
62 1913 630
63 1921 732
64 2087 370
65 2118 1276
66 2150 1213
67 2189 205
68 2220 189
69 2220 630
70 2228 732
71 2244 142
72 2276 315
73 2276 496
74 2276 654
75 2315 654
76 2315 496
77 2315 315
78 2331 142
79 2346 315
80 2346 496
81 2346 654
82 2362 142
83 2402 157
84 2402 220
85 2480 142
86 2496 370
87 2528 1276
88 2559 1213
89 2630 630
90 2638 732
91 2756 69
92 2787 69
93 2803 370
94 2835 1276
95 2866 1213
96 2906 69
97 2937 69
98 2937 630
99 2945 732
100 3016 1276
101 3055 69
102 3087 69
103 606 220
104 1165 370
105 1780 370
106 63 1402
107 94 1402
108 142 1701
109 173 2607
110 205 2544
111 213 1400
112 244 1400
113 276 1961
114 283 2063
115 362 1400
116 394 1400
117 449 1701
118 480 2607
119 512 2544
120 528 1488
121 583 1961
122 591 2063
123 638 1985
124 638 1827
125 638 1645
126 638 1473
127 669 1473
128 677 1646
129 677 1827
130 677 1985
131 709 1985
132 709 1827
133 709 1646
134 701 1473
135 764 1551
136 811 1520
137 843 1504
138 858 1701
139 890 2607
140 921 2544
141 992 1961
142 1000 2063
143 1197 2607
144 1228 2544
145 1276 1536
146 1299 1961
147 1307 2063
148 1362 1985
149 1362 1827
150 1362 1622
151 1425 1985
152 1425 1827
153 1425 1622
154 1417 1504
155 1488 1622
156 1488 1827
157 1488 1985
158 1551 1985
159 1551 1827
160 1551 1622
161 1614 1622
162 1614 1827
163 1614 1985
164 1732 1520
165 1811 2607
166 1843 2544
167 1913 1961
168 1921 2063
169 2087 1701
170 2118 2607
171 2150 2544
172 2189 1536
173 2220 1520
174 2220 1961
175 2228 2063
176 2244 1473
177 2276 1646
178 2276 1827
179 2276 1985
180 2315 1985
181 2315 1827
182 2315 1646
183 2331 1473
184 2346 1646
185 2346 1827
186 2346 1985
187 2362 1473
188 2402 1488
189 2402 1551
190 2480 1473
191 2496 1701
192 2528 2607
193 2559 2544
194 2630 1961
195 2638 2063
196 2756 1400
197 2787 1400
198 2803 1701
199 2835 2607
200 2866 2544
201 2906 1400
202 2937 1400
203 2937 1961
204 2945 2063
205 3016 2607
206 3055 1400
207 3087 1400
208 606 1551
209 1165 1701
210 1780 1701
211 63 2733
212 94 2733
213 142 3032
214 173 3938
215 205 3875
216 213 2731
217 244 2731
218 276 3292
219 283 3394
220 362 2731
221 394 2731
222 449 3032
223 480 3938
224 512 3875
225 528 2819
226 583 3292
227 591 3394
228 638 3316
229 638 3158
230 638 2976
231 638 2804
232 669 2804
233 677 2977
234 677 3158
235 677 3316
236 709 3316
237 709 3158
238 709 2977
239 701 2804
240 764 2882
241 811 2851
242 843 2835
243 858 3032
244 890 3938
245 921 3875
246 992 3292
247 1000 3394
248 1197 3938
249 1228 3875
250 1276 2867
251 1299 3292
252 1307 3394
253 1362 3316
254 1362 3158
255 1362 2953
256 1425 3316
257 1425 3158
258 1425 2953
259 1417 2835
260 1488 2953
261 1488 3158
262 1488 3316
263 1551 3316
264 1551 3158
265 1551 2953
266 1614 2953
267 1614 3158
268 1614 3316
269 1732 2851
270 1811 3938
271 1843 3875
272 1913 3292
273 1921 3394
274 2087 3032
275 2118 3938
276 2189 2867
277 2220 2851
278 2220 3292
279 2228 3394
280 2244 2804
281 2276 2977
282 2276 3158
283 2276 3316
284 2315 3316
285 2315 3158
286 2315 2977
287 2331 2804
288 2346 2977
289 2346 3158
290 2346 3316
291 2362 2804
292 2402 2819
293 2402 2882
294 2480 2804
295 2496 3032
296 2528 3938
297 2559 3875
298 2630 3292
299 2638 3394
300 2756 2731
301 2787 2731
302 2803 3032
303 2835 3938
304 2866 3875
305 2906 2731
306 2937 2731
307 2937 3292
308 2945 3394
309 3016 3938
310 3055 2731
311 3087 2731
312 606 2882
313 1165 3032
314 1780 3032
315 1417 -79
316 1496 -79
317 1693 4055
PICKUP_AND_DELIVERY_SECTION
1 0 0 0 0 0 0
2 0 0 0 0 7 0
3 0 0 0 0 132 0
4 0 0 0 0 0 107
5 0 0 0 0 0 115
6 0 0 0 0 0 218
7 0 0 0 0 0 2
8 0 0 0 0 0 32
9 0 0 0 0 18 0
10 0 0 0 0 15 0
11 0 0 0 0 21 0
12 0 0 0 0 0 16
13 0 0 0 0 108 0
14 0 0 0 0 126 0
15 0 0 0 0 0 10
16 0 0 0 0 12 0
17 0 0 0 0 24 0
18 0 0 0 0 0 9
19 0 0 0 0 0 20
20 0 0 0 0 19 0
21 0 0 0 0 0 11
22 0 0 0 0 0 28
23 0 0 0 0 0 103
24 0 0 0 0 0 17
25 0 0 0 0 0 26
26 0 0 0 0 25 0
27 0 0 0 0 0 31
28 0 0 0 0 22 0
29 0 0 0 0 0 30
30 0 0 0 0 29 0
31 0 0 0 0 27 0
32 0 0 0 0 8 0
33 0 0 0 0 0 82
34 0 0 0 0 39 0
35 0 0 0 0 0 134
36 0 0 0 0 0 168
37 0 0 0 0 43 0
38 0 0 0 0 145 0
39 0 0 0 0 0 34
40 0 0 0 0 0 45
41 0 0 0 0 46 0
42 0 0 0 0 58 0
43 0 0 0 0 0 37
44 0 0 0 0 47 0
45 0 0 0 0 40 0
46 0 0 0 0 0 41
47 0 0 0 0 0 44
48 0 0 0 0 50 0
49 0 0 0 0 315 0
50 0 0 0 0 0 48
51 0 0 0 0 0 56
52 0 0 0 0 53 0
53 0 0 0 0 0 52
54 0 0 0 0 0 105
55 0 0 0 0 0 59
56 0 0 0 0 51 0
57 0 0 0 0 0 63
58 0 0 0 0 0 42
59 0 0 0 0 55 0
60 0 0 0 0 0 164
61 0 0 0 0 0 88
62 0 0 0 0 68 0
63 0 0 0 0 57 0
64 0 0 0 0 0 114
65 0 0 0 0 66 0
66 0 0 0 0 0 65
67 0 0 0 0 77 0
68 0 0 0 0 0 62
69 0 0 0 0 76 0
70 0 0 0 0 81 0
71 0 0 0 0 83 0
72 0 0 0 0 73 0
73 0 0 0 0 0 72
74 0 0 0 0 0 80
75 0 0 0 0 89 0
76 0 0 0 0 0 69
77 0 0 0 0 0 67
78 0 0 0 0 0 85
79 0 0 0 0 86 0
80 0 0 0 0 74 0
81 0 0 0 0 0 70
82 0 0 0 0 33 0
83 0 0 0 0 0 71
84 0 0 0 0 0 101
85 0 0 0 0 78 0
86 0 0 0 0 0 79
87 0 0 0 0 0 93
88 0 0 0 0 61 0
89 0 0 0 0 0 75
90 0 0 0 0 98 0
91 0 0 0 0 0 102
92 0 0 0 0 97 0
93 0 0 0 0 87 0
94 0 0 0 0 0 95
95 0 0 0 0 94 0
96 0 0 0 0 0 99
97 0 0 0 0 0 92
98 0 0 0 0 0 90
99 0 0 0 0 96 0
100 0 0 0 0 207 0
101 0 0 0 0 84 0
102 0 0 0 0 91 0
103 0 0 0 0 23 0
104 0 0 0 0 0 316
105 0 0 0 0 54 0
106 0 0 0 0 111 0
107 0 0 0 0 4 0
108 0 0 0 0 0 13
109 0 0 0 0 211 0
110 0 0 0 0 0 221
111 0 0 0 0 0 106
112 0 0 0 0 0 116
113 0 0 0 0 135 0
114 0 0 0 0 64 0
115 0 0 0 0 5 0
116 0 0 0 0 112 0
117 0 0 0 0 0 136
118 0 0 0 0 0 119
119 0 0 0 0 118 0
120 0 0 0 0 125 0
121 0 0 0 0 124 0
122 0 0 0 0 123 0
123 0 0 0 0 0 122
124 0 0 0 0 0 121
125 0 0 0 0 0 120
126 0 0 0 0 0 14
127 0 0 0 0 208 0
128 0 0 0 0 133 0
129 0 0 0 0 152 0
130 0 0 0 0 131 0
131 0 0 0 0 0 130
132 0 0 0 0 0 3
133 0 0 0 0 0 128
134 0 0 0 0 35 0
135 0 0 0 0 0 113
136 0 0 0 0 117 0
137 0 0 0 0 138 0
138 0 0 0 0 0 137
139 0 0 0 0 241 0
140 0 0 0 0 0 143
141 0 0 0 0 147 0
142 0 0 0 0 0 144
143 0 0 0 0 140 0
144 0 0 0 0 142 0
145 0 0 0 0 0 38
146 0 0 0 0 0 157
147 0 0 0 0 0 141
148 0 0 0 0 150 0
149 0 0 0 0 156 0
150 0 0 0 0 0 148
151 0 0 0 0 161 0
152 0 0 0 0 0 129
153 0 0 0 0 0 154
154 0 0 0 0 153 0
155 0 0 0 0 160 0
156 0 0 0 0 0 149
157 0 0 0 0 146 0
158 0 0 0 0 0 162
159 0 0 0 0 0 163
160 0 0 0 0 0 155
161 0 0 0 0 0 151
162 0 0 0 0 158 0
163 0 0 0 0 159 0
164 0 0 0 0 60 0
165 0 0 0 0 0 266
166 0 0 0 0 182 0
167 0 0 0 0 0 309
168 0 0 0 0 36 0
169 0 0 0 0 172 0
170 0 0 0 0 277 0
171 0 0 0 0 0 291
172 0 0 0 0 0 169
173 0 0 0 0 183 0
174 0 0 0 0 0 178
175 0 0 0 0 0 180
176 0 0 0 0 0 187
177 0 0 0 0 188 0
178 0 0 0 0 174 0
179 0 0 0 0 186 0
180 0 0 0 0 175 0
181 0 0 0 0 0 185
182 0 0 0 0 0 166
183 0 0 0 0 0 173
184 0 0 0 0 189 0
185 0 0 0 0 181 0
186 0 0 0 0 0 179
187 0 0 0 0 176 0
188 0 0 0 0 0 177
189 0 0 0 0 0 184
190 0 0 0 0 0 202
191 0 0 0 0 0 194
192 0 0 0 0 0 193
193 0 0 0 0 192 0
194 0 0 0 0 191 0
195 0 0 0 0 198 0
196 0 0 0 0 210 0
197 0 0 0 0 0 201
198 0 0 0 0 0 195
199 0 0 0 0 204 0
200 0 0 0 0 0 300
201 0 0 0 0 197 0
202 0 0 0 0 190 0
203 0 0 0 0 0 206
204 0 0 0 0 0 199
205 0 0 0 0 0 310
206 0 0 0 0 203 0
207 0 0 0 0 0 100
208 0 0 0 0 0 127
209 0 0 0 0 0 242
210 0 0 0 0 0 196
211 0 0 0 0 0 109
212 0 0 0 0 216 0
213 0 0 0 0 0 215
214 0 0 0 0 223 0
215 0 0 0 0 213 0
216 0 0 0 0 0 212
217 0 0 0 0 222 0
218 0 0 0 0 6 0
219 0 0 0 0 227 0
220 0 0 0 0 225 0
221 0 0 0 0 110 0
222 0 0 0 0 0 217
223 0 0 0 0 0 214
224 0 0 0 0 244 0
225 0 0 0 0 0 220
226 0 0 0 0 0 236
227 0 0 0 0 0 219
228 0 0 0 0 312 0
229 0 0 0 0 239 0
230 0 0 0 0 231 0
231 0 0 0 0 0 230
232 0 0 0 0 234 0
233 0 0 0 0 0 240
234 0 0 0 0 0 232
235 0 0 0 0 0 237
236 0 0 0 0 226 0
237 0 0 0 0 235 0
238 0 0 0 0 0 246
239 0 0 0 0 0 229
240 0 0 0 0 233 0
241 0 0 0 0 0 139
242 0 0 0 0 209 0
243 0 0 0 0 0 253
244 0 0 0 0 0 224
245 0 0 0 0 248 0
246 0 0 0 0 238 0
247 0 0 0 0 251 0
248 0 0 0 0 0 245
249 0 0 0 0 252 0
250 0 0 0 0 258 0
251 0 0 0 0 0 247
252 0 0 0 0 0 249
253 0 0 0 0 243 0
254 0 0 0 0 313 0
255 0 0 0 0 0 268
256 0 0 0 0 0 263
257 0 0 0 0 262 0
258 0 0 0 0 0 250
259 0 0 0 0 265 0
260 0 0 0 0 261 0
261 0 0 0 0 0 260
262 0 0 0 0 0 257
263 0 0 0 0 256 0
264 0 0 0 0 273 0
265 0 0 0 0 0 259
266 0 0 0 0 165 0
267 0 0 0 0 0 272
268 0 0 0 0 255 0
269 0 0 0 0 0 314
270 0 0 0 0 0 317
271 0 0 0 0 0 275
272 0 0 0 0 267 0
273 0 0 0 0 0 264
274 0 0 0 0 0 282
275 0 0 0 0 271 0
276 0 0 0 0 0 286
277 0 0 0 0 0 170
278 0 0 0 0 283 0
279 0 0 0 0 308 0
280 0 0 0 0 287 0
281 0 0 0 0 285 0
282 0 0 0 0 274 0
283 0 0 0 0 0 278
284 0 0 0 0 289 0
285 0 0 0 0 0 281
286 0 0 0 0 276 0
287 0 0 0 0 0 280
288 0 0 0 0 0 293
289 0 0 0 0 0 284
290 0 0 0 0 0 299
291 0 0 0 0 171 0
292 0 0 0 0 0 294
293 0 0 0 0 288 0
294 0 0 0 0 292 0
295 0 0 0 0 0 298
296 0 0 0 0 303 0
297 0 0 0 0 0 307
298 0 0 0 0 295 0
299 0 0 0 0 290 0
300 0 0 0 0 200 0
301 0 0 0 0 305 0
302 0 0 0 0 306 0
303 0 0 0 0 0 296
304 0 0 0 0 311 0
305 0 0 0 0 0 301
306 0 0 0 0 0 302
307 0 0 0 0 297 0
308 0 0 0 0 0 279
309 0 0 0 0 167 0
310 0 0 0 0 205 0
311 0 0 0 0 0 304
312 0 0 0 0 0 228
313 0 0 0 0 0 254
314 0 0 0 0 269 0
315 0 0 0 0 0 49
316 0 0 0 0 104 0
317 0 0 0 0 270 0
DEPOT_SECTION
1 
-1
EOF
